proyfinal/src/viki/013/experimentInOfficeAgust.take6.output/ff05e981-c3bb-47c8-9319-66960f20501f.als.out
Reading from standard input... Use '--help' for help.
============================[ Problem Statistics ]=============================
|                                                                             |
|  Number of variables:         87638                                         |
|  Number of clauses:          161767                                         |
|  Parse time:                   0.04 s                                       |
|                                                                             |
============================[ Search Statistics ]==============================
| Conflicts |          ORIGINAL         |          LEARNT          | Progress |
|           |    Vars  Clauses Literals |    Limit  Clauses Lit/Cl |          |
===============================================================================
|       100 |   61989   103817   259305 |    38066      100      8 | 29.267 % |
|       250 |   61969   103733   259112 |    41872      249     18 | 29.290 % |
|       475 |   61969   103733   259112 |    46060      474     56 | 29.290 % |
|       812 |   61969   103733   259112 |    50666      811     58 | 29.290 % |
|      1318 |   61969   103733   259112 |    55732     1317     74 | 29.290 % |
|      2077 |   61943   103633   258856 |    61306     2074     71 | 29.320 % |
|      3216 |   61942   103589   258766 |    67436     3211     81 | 29.321 % |
|      4924 |   61942   103589   258766 |    74180     4919     78 | 29.321 % |
|      7486 |   61942   103589   258766 |    81598     7481     66 | 29.321 % |
|     11330 |   61916   103446   258454 |    89758    10782     64 | 29.350 % |
===============================================================================
restarts              : 61
conflicts             : 13648          (6985 /sec)
decisions             : 43218          (0.00 % random) (22119 /sec)
propagations          : 19311747       (9883637 /sec)
conflict literals     : 806834         (60.73 % deleted)
Memory used           : 32.37 MB
CPU time              : 1.95391 s

UNSATISFIABLE
